sat
(:added-eqs                       613
 :arith-eq-adapter                148
 :arith-bound-propagations-lp     43
 :arith-conflicts                 135
 :arith-cube-calls                1
 :arith-diseq                     233
 :arith-fixed-eqs                 175
 :arith-gcd-calls                 4
 :arith-grobner-calls             58
 :arith-grobner-conflicts         8
 :arith-horner-calls              13
 :arith-horner-cross-nested-forms 510
 :arith-lower                     497
 :arith-make-feasible             355
 :arith-max-columns               694
 :arith-max-rows                  85
 :arith-nla-add-bounds            41
 :arith-nla-lemmas                55
 :arith-nla-propagate-bounds      30
 :arith-nla-propagate-eq          251
 :arith-nra-calls                 13
 :arith-offset-eqs                7
 :arith-patches                   4
 :arith-patches-success           2
 :arith-upper                     1754
 :binary-propagations             2186
 :card2bv-rewrites                8
 :conflicts                       68
 :decisions                       5624
 :del-clause                      412
 :elim-unconstrained              19
 :final-checks                    132
 :max-memory                      23.92
 :memory                          19.10
 :minimized-lits                  68
 :mk-bool-var                     1581
 :mk-clause                       559
 :mk-clause-binary                867
 :num-allocs                      69861628
 :num-checks                      1
 :propagations                    2754
 :rlimit-count                    855205
 :time                            0.68
 :total-time                      0.70)
